data/solutions/planning/wellformed/hard/highest_rank_objective/wellformed_hard_instance19_cplex.sol
Elapsed time: 21.0
Nodes explored: 1722
Nodes left: -
Relative gap: -
Upper bound: 25748638.0
Lower bound: -
C[0]=25170.0
C[1]=25170.0
C[2]=25169.0
C[3]=25169.0
C[4]=25169.0
C[5]=25169.0
C[6]=25169.0
C[7]=25168.0
C[8]=25166.0
C[9]=25162.0
y[0]=2
y[1]=6
y[2]=0
y[3]=4
y[4]=1
y[5]=3
y[6]=5
y[7]=7
y[8]=1
y[9]=7
y[10]=8
y[11]=2
y[12]=3
y[13]=2
y[14]=8
y[15]=3
y[16]=9
y[17]=2
y[18]=1
y[19]=6
y[20]=3
y[21]=6
y[22]=6
y[23]=3
y[24]=2
y[25]=1
y[26]=0
y[27]=9
y[28]=4
y[29]=9
y[30]=2
y[31]=6
y[32]=9
y[33]=1
y[34]=6
y[35]=9
y[36]=3
y[37]=2
y[38]=8
y[39]=9
y[40]=7
y[41]=4
y[42]=1
y[43]=6
y[44]=0
y[45]=7
y[46]=5
y[47]=4
y[48]=2
y[49]=4
y[50]=2
y[51]=2
y[52]=6
y[53]=7
y[54]=2
y[55]=9
y[56]=0
y[57]=7
y[58]=5
y[59]=2
y[60]=6
y[61]=9
y[62]=6
y[63]=5
y[64]=6
y[65]=9
y[66]=8
y[67]=3
y[68]=6
y[69]=1
y[70]=4
y[71]=0
y[72]=1
y[73]=6
y[74]=0
y[75]=9
y[76]=1
y[77]=8
y[78]=9
y[79]=7
y[80]=9
y[81]=5
y[82]=0
y[83]=3
y[84]=4
y[85]=2
y[86]=0
y[87]=5
y[88]=5
y[89]=9
y[90]=8
y[91]=8
y[92]=7
y[93]=1
y[94]=4
y[95]=2
y[96]=7
y[97]=2
y[98]=8
y[99]=1
y[100]=4
y[101]=0
y[102]=7
y[103]=3
y[104]=5
y[105]=4
y[106]=2
y[107]=0
y[108]=6
y[109]=9
y[110]=6
y[111]=9
y[112]=7
y[113]=1
y[114]=6
y[115]=7
y[116]=0
y[117]=4
y[118]=9
y[119]=3
y[120]=9
y[121]=9
y[122]=8
y[123]=3
y[124]=2
y[125]=3
y[126]=6
y[127]=6
y[128]=4
y[129]=3
y[130]=7
y[131]=1
y[132]=1
y[133]=1
y[134]=1
y[135]=1
y[136]=5
y[137]=5
y[138]=2
y[139]=0
y[140]=0
y[141]=0
y[142]=4
y[143]=1
y[144]=8
y[145]=2
y[146]=1
y[147]=2
y[148]=8
y[149]=8
y[150]=6
y[151]=9
y[152]=8
y[153]=8
y[154]=0
y[155]=3
y[156]=6
y[157]=1
y[158]=9
y[159]=5
y[160]=7
y[161]=1
y[162]=4
y[163]=6
y[164]=0
y[165]=1
y[166]=5
y[167]=1
y[168]=3
y[169]=6
y[170]=9
y[171]=4
y[172]=0
y[173]=5
y[174]=4
y[175]=2
y[176]=1
y[177]=6
y[178]=4
y[179]=1
y[180]=2
y[181]=6
y[182]=8
y[183]=8
y[184]=5
y[185]=6
y[186]=9
y[187]=2
y[188]=9
y[189]=1
y[190]=0
y[191]=6
y[192]=1
y[193]=1
y[194]=3
y[195]=2
y[196]=5
y[197]=5
y[198]=8
y[199]=2
y[200]=6
y[201]=2
y[202]=6
y[203]=8
y[204]=4
y[205]=7
y[206]=8
y[207]=0
y[208]=9
y[209]=9
y[210]=1
y[211]=2
y[212]=8
y[213]=9
y[214]=3
y[215]=6
y[216]=1
y[217]=3
y[218]=1
y[219]=3
y[220]=2
y[221]=9
y[222]=2
y[223]=1
y[224]=2
y[225]=9
y[226]=9
y[227]=2
y[228]=3
y[229]=5
y[230]=6
y[231]=7
y[232]=3
y[233]=4
y[234]=4
y[235]=9
y[236]=6
y[237]=1
y[238]=9
y[239]=6
y[240]=3
y[241]=9
y[242]=4
y[243]=7
y[244]=0
y[245]=6
y[246]=4
y[247]=8
y[248]=2
y[249]=2
y[250]=6
y[251]=1
y[252]=3
y[253]=7
y[254]=0
y[255]=8
y[256]=0
y[257]=8
y[258]=4
y[259]=6
y[260]=6
y[261]=8
y[262]=0
y[263]=6
y[264]=0
y[265]=9
y[266]=1
y[267]=4
y[268]=4
y[269]=9
y[270]=6
y[271]=4
y[272]=3
y[273]=9
y[274]=7
y[275]=1
y[276]=2
y[277]=5
y[278]=7
y[279]=3
y[280]=6
y[281]=2
y[282]=2
y[283]=8
y[284]=6
y[285]=3
y[286]=2
y[287]=6
y[288]=8
y[289]=3
y[290]=5
y[291]=6
y[292]=8
y[293]=6
y[294]=3
y[295]=4
y[296]=8
y[297]=5
y[298]=1
y[299]=1
y[300]=1
y[301]=8
y[302]=2
y[303]=8
y[304]=6
y[305]=6
y[306]=8
y[307]=3
y[308]=3
y[309]=4
y[310]=6
y[311]=6
y[312]=2
y[313]=6
y[314]=4
y[315]=0
y[316]=3
y[317]=5
y[318]=2
y[319]=5
y[320]=1
y[321]=0
y[322]=1
y[323]=5
y[324]=5
y[325]=2
y[326]=2
y[327]=6
y[328]=2
y[329]=7
y[330]=6
y[331]=9
y[332]=7
y[333]=0
y[334]=5
y[335]=6
y[336]=6
y[337]=0
y[338]=8
y[339]=4
y[340]=1
y[341]=8
y[342]=0
y[343]=0
y[344]=6
y[345]=7
y[346]=1
y[347]=7
y[348]=1
y[349]=6
y[350]=9
y[351]=0
y[352]=2
y[353]=5
y[354]=1
y[355]=5
y[356]=9
y[357]=7
y[358]=8
y[359]=7
y[360]=6
y[361]=6
y[362]=8
y[363]=1
y[364]=2
y[365]=6
y[366]=2
y[367]=3
y[368]=0
y[369]=6
y[370]=4
y[371]=2
y[372]=9
y[373]=8
y[374]=2
y[375]=6
y[376]=6
y[377]=5
y[378]=1
y[379]=5
y[380]=7
y[381]=6
y[382]=6
y[383]=1
y[384]=3
y[385]=8
y[386]=2
y[387]=6
y[388]=8
y[389]=7
y[390]=1
y[391]=6
y[392]=1
y[393]=3
y[394]=0
y[395]=4
y[396]=9
y[397]=4
y[398]=6
y[399]=4
y[400]=0
y[401]=6
y[402]=5
y[403]=9
y[404]=4
y[405]=6
y[406]=6
y[407]=6
y[408]=6
y[409]=6
y[410]=3
y[411]=0
y[412]=8
y[413]=3
y[414]=5
y[415]=6
y[416]=2
y[417]=8
y[418]=8
y[419]=1
y[420]=0
y[421]=7
y[422]=6
y[423]=5
y[424]=2
y[425]=2
y[426]=4
y[427]=2
y[428]=6
y[429]=7
y[430]=4
y[431]=6
y[432]=8
y[433]=6
y[434]=1
y[435]=6
y[436]=6
y[437]=6
y[438]=8
y[439]=5
y[440]=2
y[441]=6
y[442]=4
y[443]=4
y[444]=0
y[445]=0
y[446]=4
y[447]=7
y[448]=7
y[449]=5
y[450]=2
y[451]=9
y[452]=3
y[453]=5
y[454]=2
y[455]=3
y[456]=2
y[457]=6
y[458]=0
y[459]=7
y[460]=5
y[461]=4
y[462]=3
y[463]=3
y[464]=1
y[465]=6
y[466]=4
y[467]=5
y[468]=0
y[469]=8
y[470]=1
y[471]=2
y[472]=8
y[473]=2
y[474]=9
y[475]=2
y[476]=5
y[477]=2
y[478]=3
y[479]=1
y[480]=2
y[481]=0
y[482]=2
y[483]=3
y[484]=2
y[485]=2
y[486]=0
y[487]=1
y[488]=0
y[489]=0
y[490]=4
y[491]=7
y[492]=1
y[493]=6
y[494]=6
y[495]=5
y[496]=1
y[497]=5
y[498]=3
y[499]=9
