data/solutions/planning/wellformed/hard/highest_rank_objective/wellformed_hard_instance19_cplex.log
Found incumbent of value 251681.000000 after 0.00 sec. (0.41 ticks)
Tried aggregator 2 times.
Aggregator did 10 substitutions.
Reduced MIP has 510 rows, 5001 columns, and 10010 nonzeros.
Reduced MIP has 5000 binaries, 0 generals, 0 SOSs, and 0 indicators.
Presolve time = 0.01 sec. (9.45 ticks)
Tried aggregator 1 time.
Reduced MIP has 510 rows, 5001 columns, and 10010 nonzeros.
Reduced MIP has 5000 binaries, 1 generals, 0 SOSs, and 0 indicators.
Presolve time = 0.01 sec. (5.84 ticks)
Probing time = 0.00 sec. (2.06 ticks)
Clique table members: 500.
MIP emphasis: balance optimality and feasibility.
MIP search method: dynamic search.
Parallel mode: none, using 1 thread.
Root relaxation solution time = 0.01 sec. (26.33 ticks)

        Nodes                                         Cuts/
   Node  Left     Objective  IInf  Best Integer    Best Bound    ItCnt     Gap

*     0+    0                       251681.0000        0.0000           100.00%
      0     0    25168.1000    19   251681.0000    25168.1000      491   90.00%
*     0+    0                        25824.0000    25168.1000             2.54%
      0     0    25169.0000    19    25824.0000      Fract: 7      509    2.54%
*     0+    0                        25545.0000    25169.0000             1.47%
      0     0    25169.0000    24    25545.0000      Cuts: 22      543    1.47%
*     0+    0                        25505.0000    25169.0000             1.32%
      0     0    25169.0000    20    25505.0000       Cuts: 8      569    1.32%
      0     0    25169.0000    26    25505.0000      Cuts: 11      591    1.32%
*     0+    0                        25465.0000    25169.0000             1.16%
*     0+    0                        25426.0000    25169.0000             1.01%
*     0+    0                        25399.0000    25169.0000             0.91%
*     0+    0                        25394.0000    25169.0000             0.89%
*     0+    0                        25346.0000    25169.0000             0.70%
*     0+    0                        25307.0000    25169.0000             0.55%
*     0+    0                        25289.0000    25169.0000             0.47%
*     0+    0                        25252.0000    25169.0000             0.33%
*     0+    0                        25249.0000    25169.0000             0.32%
      0     2    25169.0000    14    25249.0000    25169.0000      599    0.32%
Elapsed time = 0.36 sec. (420.99 ticks, tree = 0.01 MB, solutions = 13)
    170   172    25169.0000    13    25249.0000    25169.0000     1556    0.32%
    171   173    25169.0000    13    25249.0000    25169.0000     1574    0.32%
    172   174    25169.0000    12    25249.0000    25169.0000     1593    0.32%
    173   175    25169.0000    13    25249.0000    25169.0000     1617    0.32%
    174   176    25169.0000    13    25249.0000    25169.0000     1628    0.32%
    175   177    25169.0000    12    25249.0000    25169.0000     1649    0.32%
    176   178    25169.0000    13    25249.0000    25169.0000     1670    0.32%
    177   179    25169.0000    12    25249.0000    25169.0000     1684    0.32%
    178   180    25169.0000    12    25249.0000    25169.0000     1688    0.32%
*   530+  528                        25235.0000    25169.0000             0.26%
*   531+  529                        25228.0000    25169.0000             0.23%
*   532+  353                        25212.0000    25169.0000             0.17%
*   532+  234                        25204.0000    25169.0000             0.14%
    532   235    25169.0000    13    25204.0000    25169.0000     7749    0.14%
Elapsed time = 1.53 sec. (1880.36 ticks, tree = 0.71 MB, solutions = 17)
*   582+  190                        25201.0000    25169.0000             0.13%
    736   270    25169.0000    14    25201.0000    25169.0000     8644    0.13%
    737   271    25169.0000    14    25201.0000    25169.0000     8654    0.13%
    738   271    25169.0000    15    25201.0000    25169.0000     8663    0.13%
    739   271    25169.0000    16    25201.0000    25169.0000     8665    0.13%
    740   272    25169.0000    16    25201.0000    25169.0000     8666    0.13%
    741   272    25169.0000    15    25201.0000    25169.0000     8669    0.13%
    742   272    25169.0000    15    25201.0000    25169.0000     8672    0.13%
    743   273    25169.0000    15    25201.0000    25169.0000     8680    0.13%
    744   274    25169.0000    14    25201.0000    25169.0000     8683    0.13%
    745   275    25169.0000    14    25201.0000    25169.0000     8687    0.13%
Elapsed time = 2.22 sec. (2867.87 ticks, tree = 0.66 MB, solutions = 18)
   1036   506    25169.0000    12    25201.0000    25169.0000     9969    0.13%
   1037   507    25169.0000    13    25201.0000    25169.0000     9971    0.13%
   1038   508    25169.0000    13    25201.0000    25169.0000     9972    0.13%
   1039   509    25169.0000    13    25201.0000    25169.0000     9973    0.13%
   1040   510    25169.0000    13    25201.0000    25169.0000     9974    0.13%
   1041   511    25169.0000    13    25201.0000    25169.0000     9975    0.13%
   1042   512    25169.0000    13    25201.0000    25169.0000     9976    0.13%
   1043   513    25169.0000    12    25201.0000    25169.0000     9979    0.13%
   1044   514    25169.0000    12    25201.0000    25169.0000     9980    0.13%
   1045   515    25169.0000    13    25201.0000    25169.0000     9984    0.13%
Elapsed time = 2.89 sec. (3844.21 ticks, tree = 1.35 MB, solutions = 18)
*  1092+  560                        25192.0000    25169.0000             0.09%
*  1122+  590                        25185.0000    25169.0000             0.06%
*  1132+  600                        25178.0000    25169.0000             0.04%
*  1152+  618                        25176.0000    25169.0000             0.03%
*  1222+  670                        25174.0000    25169.0000             0.02%
*  1232+  660                        25173.0000    25169.0000             0.02%
*  1232+  659                        25172.0000    25169.0000             0.01%
*  1312+  693                        25170.0000    25169.0000             0.00%

Lift and project cuts applied:  1
Gomory fractional cuts applied:  2

Root node processing (before b&c):
  Real time             =    0.36 sec. (421.44 ticks)
Sequential b&c:
  Real time             =    2.96 sec. (4144.54 ticks)
                          ------------
Total (root+branch&cut) =    3.32 sec. (4565.98 ticks)

Populate: phase II 
Tried aggregator 2 times.
Aggregator did 10 substitutions.
Reduced MIP has 510 rows, 5001 columns, and 10010 nonzeros.
Reduced MIP has 5000 binaries, 0 generals, 0 SOSs, and 0 indicators.
Presolve time = 0.01 sec. (9.45 ticks)
Probing time = 0.00 sec. (2.06 ticks)
Clique table members: 500.
MIP emphasis: balance optimality and feasibility.
MIP search method: dynamic search.
Parallel mode: none, using 1 thread.
Root relaxation solution time = 0.01 sec. (26.33 ticks)

        Nodes                                         Cuts/
   Node  Left     Objective  IInf  Best Integer    Best Bound    ItCnt     Gap

*     0+    0                        25170.0000        0.0000           100.00%
      0     0    25168.1000    19    25170.0000    25168.1000      491    0.01%
      0     2    25169.0000    18    25170.0000    25169.0000      491    0.00%
Elapsed time = 0.39 sec. (405.05 ticks, tree = 0.01 MB, solutions = 52)
      1     3    25169.0000    18    25170.0000    25169.0000      493    0.00%
      2     4    25169.0000    18    25170.0000    25169.0000      498    0.00%
      3     5    25169.0000    18    25170.0000    25169.0000      500    0.00%
      4     6    25169.0000    17    25170.0000    25169.0000      502    0.00%
      5     7    25169.0000    17    25170.0000    25169.0000      504    0.00%
      6     8    25169.0000    16    25170.0000    25169.0000      509    0.00%
      7     9    25169.0000    18    25170.0000    25169.0000      525    0.00%
      8    10    25169.0000    16    25170.0000    25169.0000      528    0.00%
      9    11    25169.0000    18    25170.0000    25169.0000      529    0.00%
     10    12    25169.0000    18    25170.0000    25169.0000      531    0.00%
Elapsed time = 2.97 sec. (2705.83 ticks, tree = 0.02 MB, solutions = 200)
     38    40    25169.0000    14    25170.0000    25169.0000      780    0.00%
     39    41    25169.0000    13    25170.0000    25169.0000      785    0.00%
     40    42    25169.0000    12    25170.0000    25169.0000      795    0.00%
     41    43    25169.0000    15    25170.0000    25169.0000      822    0.00%
     42    44    25169.0000    13    25170.0000    25169.0000      825    0.00%
     43    45    25169.0000    13    25170.0000    25169.0000      827    0.00%
     44    46    25169.0000    12    25170.0000    25169.0000      839    0.00%
     45    47    25169.0000    15    25170.0000    25169.0000      861    0.00%
     46    48    25169.0000    12    25170.0000    25169.0000      864    0.00%
     47    49    25169.0000    15    25170.0000    25169.0000      890    0.00%
Elapsed time = 4.67 sec. (3977.51 ticks, tree = 0.09 MB, solutions = 438)
     74    76    25169.0000    13    25170.0000    25169.0000     1145    0.00%
     75    77    25169.0000    12    25170.0000    25169.0000     1151    0.00%
     76    78    25169.0000    14    25170.0000    25169.0000     1164    0.00%
     77    79    25169.0000    13    25170.0000    25169.0000     1170    0.00%
     78    80    25169.0000    15    25170.0000    25169.0000     1187    0.00%
     79    81    25169.0000    13    25170.0000    25169.0000     1197    0.00%
     80    82    25169.0000    12    25170.0000    25169.0000     1204    0.00%
     81    83    25169.0000    14    25170.0000    25169.0000     1225    0.00%
     82    84    25169.0000    12    25170.0000    25169.0000     1229    0.00%
     83    85    25169.0000    14    25170.0000    25169.0000     1242    0.00%
Elapsed time = 6.43 sec. (5260.82 ticks, tree = 0.17 MB, solutions = 664)
    119   121    25169.0000    12    25170.0000    25169.0000     1530    0.00%
    120   122    25169.0000    15    25170.0000    25169.0000     1554    0.00%
    121   123    25169.0000    12    25170.0000    25169.0000     1556    0.00%
    122   124    25169.0000    14    25170.0000    25169.0000     1565    0.00%
    123   125    25169.0000    14    25170.0000    25169.0000     1568    0.00%
    124   126    25169.0000    14    25170.0000    25169.0000     1574    0.00%
    125   127    25169.0000    15    25170.0000    25169.0000     1583    0.00%
    126   128    25169.0000    13    25170.0000    25169.0000     1591    0.00%
    127   129    25169.0000    13    25170.0000    25169.0000     1606    0.00%
    128   130    25169.0000    15    25170.0000    25169.0000     1612    0.00%
Elapsed time = 8.03 sec. (6454.37 ticks, tree = 0.26 MB, solutions = 848)
    160   162    25169.0000    15    25170.0000    25169.0000     1886    0.00%
    161   163    25169.0000    14    25170.0000    25169.0000     1892    0.00%
    162   164    25169.0000    14    25170.0000    25169.0000     1895    0.00%
    163   165    25169.0000    13    25170.0000    25169.0000     1904    0.00%
    164   166    25169.0000    14    25170.0000    25169.0000     1920    0.00%
    165   167    25169.0000    13    25170.0000    25169.0000     1928    0.00%
    166   168    25169.0000    14    25170.0000    25169.0000     1944    0.00%
    167   169    25169.0000    13    25170.0000    25169.0000     1946    0.00%
    168   170    25169.0000    13    25170.0000    25169.0000     1951    0.00%
    169   171    25169.0000    14    25170.0000    25169.0000     1954    0.00%
Elapsed time = 9.57 sec. (7616.20 ticks, tree = 0.36 MB, solutions = 1081)
    205   207    25169.0000    13    25170.0000    25169.0000     2226    0.00%
    206   208    25169.0000    14    25170.0000    25169.0000     2239    0.00%
    207   209    25169.0000    14    25170.0000    25169.0000     2253    0.00%
    208   210    25169.0000    14    25170.0000    25169.0000     2266    0.00%
    209   211    25169.0000    14    25170.0000    25169.0000     2281    0.00%
    210   212    25169.0000    14    25170.0000    25169.0000     2284    0.00%
    211   213    25169.0000    14    25170.0000    25169.0000     2288    0.00%
    212   214    25169.0000    14    25170.0000    25169.0000     2301    0.00%
    213   215    25169.0000    14    25170.0000    25169.0000     2305    0.00%
    214   216    25169.0000    13    25170.0000    25169.0000     2312    0.00%
Elapsed time = 11.12 sec. (8775.66 ticks, tree = 0.46 MB, solutions = 1282)
    248   250    25169.0000    15    25170.0000    25169.0000     2528    0.00%
    249   251    25169.0000    13    25170.0000    25169.0000     2538    0.00%
    250   252    25169.0000    15    25170.0000    25169.0000     2550    0.00%
    251   253    25169.0000    14    25170.0000    25169.0000     2552    0.00%
    252   254    25169.0000    14    25170.0000    25169.0000     2565    0.00%
    253   255    25169.0000    14    25170.0000    25169.0000     2566    0.00%
    254   256    25169.0000    14    25170.0000    25169.0000     2570    0.00%
    255   257    25169.0000    14    25170.0000    25169.0000     2574    0.00%
    256   258    25169.0000    14    25170.0000    25169.0000     2579    0.00%
    257   259    25169.0000    13    25170.0000    25169.0000     2585    0.00%
Elapsed time = 12.64 sec. (9911.32 ticks, tree = 0.57 MB, solutions = 1480)
    298   300    25169.0000    14    25170.0000    25169.0000     2934    0.00%
    299   301    25169.0000    15    25170.0000    25169.0000     2938    0.00%
    300   302    25169.0000    13    25170.0000    25169.0000     2942    0.00%
    301   303    25169.0000    14    25170.0000    25169.0000     2952    0.00%
    302   304    25169.0000    13    25170.0000    25169.0000     2957    0.00%
    303   305    25169.0000    14    25170.0000    25169.0000     2963    0.00%
    304   306    25169.0000    14    25170.0000    25169.0000     2966    0.00%
    305   307    25169.0000    15    25170.0000    25169.0000     2970    0.00%
    306   308    25169.0000    16    25170.0000    25169.0000     2977    0.00%
    307   309    25169.0000    15    25170.0000    25169.0000     2984    0.00%
Elapsed time = 14.20 sec. (11089.82 ticks, tree = 0.70 MB, solutions = 1654)
    343   345    25169.0000    13    25170.0000    25169.0000     3256    0.00%
    344   346    25169.0000    13    25170.0000    25169.0000     3259    0.00%
    345   347    25169.0000    15    25170.0000    25169.0000     3274    0.00%
    346   348    25169.0000    14    25170.0000    25169.0000     3277    0.00%
    347   349    25169.0000    13    25170.0000    25169.0000     3283    0.00%
    348   350    25169.0000    15    25170.0000    25169.0000     3288    0.00%
    349   351    25169.0000    14    25170.0000    25169.0000     3290    0.00%
    350   352    25169.0000    13    25170.0000    25169.0000     3296    0.00%
    351   353    25169.0000    14    25170.0000    25169.0000     3301    0.00%
    352   354    25169.0000    13    25170.0000    25169.0000     3304    0.00%
Elapsed time = 15.81 sec. (12279.38 ticks, tree = 0.81 MB, solutions = 1868)
    394   396    25169.0000    14    25170.0000    25169.0000     3485    0.00%
    395   397    25169.0000    14    25170.0000    25169.0000     3486    0.00%
    396   398    25169.0000    13    25170.0000    25169.0000     3495    0.00%
    397   399    25169.0000    14    25170.0000    25169.0000     3503    0.00%
    398   400    25169.0000    14    25170.0000    25169.0000     3507    0.00%
    399   401    25169.0000    14    25170.0000    25169.0000     3510    0.00%
    400   402    25169.0000    13    25170.0000    25169.0000     3518    0.00%
    401   403    25169.0000    14    25170.0000    25169.0000     3520    0.00%
    402   404    25169.0000    13    25170.0000    25169.0000     3529    0.00%

Root node processing (before b&c):
  Real time             =    0.46 sec. (472.82 ticks)
Sequential b&c:
  Real time             =   17.21 sec. (13177.98 ticks)
                          ------------
Total (root+branch&cut) =   17.67 sec. (13650.80 ticks)
